nb_edges = 45;
e_name = ["aa", "ab", "ac", "ad", "ae", "af", "ag", "ah", "ai", "aj", "ak", "al", "am", "an", "ao", "ap", "aq", "ar", "as", "at", "au", "av", "aw", "ax", "ay", "az", "ba", "bb", "bc", "bd", "be", "bf", "bg", "bh", "bi", "bj", "bk", "bl", "bm", "bn", "bo", "bp", "bq", "br", "bs"];
e_type = [border, border, inter, inter, inter, inter, inter, inter, inter, inter, inter, inter, inter, inter, inter, platform, platform, platform, platform, platform, platform, platform, platform, platform, platform, platform, platform, platform, platform, platform, inter, inter, inter, inter, inter, inter, inter, inter, inter, inter, inter, inter, inter, border, border];
e_cols = [{1},{2},{3},{4},{5},{6},{7},{8},{9,10},{11},{12},{13},{14},{15},{16},{17},{18},{19},{20},{21},{22},{23},{24},{25},{26},{27},{28},{29},{30},{31},{32,33},{34},{35},{36},{37},{38},{39},{40},{41},{42},{43},{44},{45},{46},{47}];
nb_trains = 8;
t_name = ["T1", "T2", "T3", "T4", "T5", "T6", "T7", "T8"];
t_routes = [{1},{2},{3},{4},{5},{6},{7},{8}];
t_est = [1225, 116, 1054, 1449, 714, 1195, 33, 402];
t_type = [vanish, vanish, vanish, vanish, vanish, appear, appear, appear];
nb_routes = 8;
r_name = ["IW2", "IE5", "IW3", "IW4", "IW1", "I5W", "I2E", "I3W"];
r_it_1 = ["IW2", "IE5", "IW3", "IW4", "IW1", "I5W", "I2E", "I3W"];
r_it_2 = ["", "", "", "", "", "", "", ""];
r_platform_name = ["S_II", "S_V", "S_III", "S_IV", "S_I", "S_V", "S_II", "S_III"];
r_dwell_min = [100, 100, 100, 100, 100, 1, 1, 1];
r_dur_min = [60, 60, 60, 60, 60, 60, 60, 60];
r_overlap = [0, 0, 0, 0, 0, 0, 0, 0];
r_block_start = [1, 9, 17, 25, 33, 40, 48, 56];
r_block_end = [8, 16, 24, 32, 39, 47, 55, 63];
r_train = [1, 2, 3, 4, 5, 6, 7, 8];
nb_blocks = 63;
b_edge = [1, 3, 6, 10, 12, 17, 22, 27, 45, 43, 40, 37, 35, 30, 25, 20, 1, 3, 6, 10, 13, 18, 23, 28, 1, 3, 7, 11, 14, 19, 24, 29, 1, 3, 6, 9, 16, 21, 26, 30, 25, 20, 15, 11, 8, 5, 2, 17, 22, 27, 32, 36, 38, 41, 44, 28, 23, 18, 13, 10, 6, 4, 2];
b_dur = [7, 15, 22, 30, 37, 45, 52, 60, 7, 15, 22, 30, 37, 45, 52, 60, 7, 15, 22, 30, 37, 45, 52, 60, 7, 15, 22, 30, 37, 45, 52, 60, 8, 17, 25, 34, 42, 51, 60, 0, 0, 0, 12, 24, 36, 48, 60, 0, 0, 0, 12, 24, 36, 48, 60, 0, 0, 0, 12, 24, 36, 48, 60];
b_start_offset = [0, -7, -15, -22, -30, -37, -45, -52, 0, -7, -15, -22, -30, -37, -45, -52, 0, -7, -15, -22, -30, -37, -45, -52, 0, -7, -15, -22, -30, -37, -45, -52, 0, -8, -17, -25, -34, -42, -51, 0, 0, 0, 0, -12, -24, -36, -48, 0, 0, 0, 0, -12, -24, -36, -48, 0, 0, 0, 0, -12, -24, -36, -48];
b_stop = [false, false, false, false, false, false, false, true, false, false, false, false, false, false, false, true, false, false, false, false, false, false, false, true, false, false, false, false, false, false, false, true, false, false, false, false, false, false, true, true, true, true, false, false, false, false, false, true, true, true, false, false, false, false, false, true, true, true, false, false, false, false, false];
b_route = [1, 1, 1, 1, 1, 1, 1, 1, 2, 2, 2, 2, 2, 2, 2, 2, 3, 3, 3, 3, 3, 3, 3, 3, 4, 4, 4, 4, 4, 4, 4, 4, 5, 5, 5, 5, 5, 5, 5, 6, 6, 6, 6, 6, 6, 6, 6, 7, 7, 7, 7, 7, 7, 7, 7, 8, 8, 8, 8, 8, 8, 8, 8];
